Traveling Salesman Problem/TSP_generados/Aleatorio1620391564_15.tsp
NAME: Aleatorio1620391564_15.tsp
COMMENT: Randomly generated scenario
TYPE: TSP
DIMENSION: 15
EDGE_WEIGHT_TYPE: ATT
NODE_COORD_SECTION
1 31.17 4.09
2 37.83 32.2
3 43.85 27.24
4 39.51 43.54
5 24.85 5.81
6 5.97 40.84
7 11.15 7.25
8 41.51 20.25
9 22.8 10.5
10 35.94 20.54
11 49.02 4.35
12 41.67 24.84
13 6.54 27.45
14 3.27 24.27
15 18.08 44.36
