Traveling Salesman Problem/TSP_generados/Aleatorio1620391564_15.opt.tour
NAME: Aleatorio1620391564_15.opt.tour
COMMENT: Optimal solution for Aleatorio1620391564_15 (165.22310767253833)
TYPE: TOUR
DIMENSION: 15
TOUR_SECTION
1 5 9 7 14 13 6 15 4 2 3 12 10 8 11
-1
EOF
